146
300
210	4
209	3
208	2
207	6
206	2
205	5
204	1
203	3
202	4
201	1
200	3
199	3
198	6
197	1
196	4
194	6
193	10
192	2
191	2
190	6
189	4
188	7
187	3
186	2
184	4
183	2
182	7
181	2
180	4
179	7
178	4
176	3
175	2
174	2
173	2
172	1
171	3
170	4
169	4
168	4
167	4
166	5
165	5
164	2
163	3
162	1
161	2
160	1
159	6
158	1
157	2
156	2
155	5
154	2
153	2
152	1
151	6
150	3
149	1
148	1
147	5
146	1
145	4
144	3
143	3
142	6
141	6
140	3
139	1
138	3
137	6
136	6
135	2
134	1
133	4
132	5
131	3
130	2
129	4
128	3
127	4
126	1
125	4
124	2
123	3
122	2
121	3
120	3
119	6
118	4
117	4
116	9
115	2
114	4
113	3
112	3
111	2
110	2
109	6
108	4
107	4
106	2
105	3
104	3
103	3
102	3
101	5
99	5
98	1
97	3
95	4
94	3
93	3
92	2
91	2
90	5
89	3
88	4
87	3
86	3
85	5
84	3
83	5
82	3
81	3
80	4
79	1
78	6
77	4
76	3
75	6
74	4
73	1
72	3
71	4
70	5
69	3
68	3
67	5
66	4
65	1
64	5
63	5
62	2
61	3
60	3
